(set-logic QF_BV)
(declare-fun _substvar_294_ () (_ BitVec 8))
(declare-fun _substvar_298_ () (_ BitVec 8))
(declare-fun _substvar_196_ () (_ BitVec 16))
(declare-fun _substvar_292_ () (_ BitVec 16))
(declare-fun _substvar_308_ () (_ BitVec 8))
(assert (let ((?v_7 ((_ zero_extend 24) _substvar_308_)) (?v_1 ((_ zero_extend 24) _substvar_294_))) (let ((?v_0 (bvadd ?v_1 (_ bv1 32)))) (let ((?v_2 (bvadd (bvadd ?v_0 (_ bv4269308 32)) ((_ zero_extend 16) _substvar_292_)))) (let ((?v_4 (bvadd ?v_2 (_ bv6 32)))) (let ((?v_6 (bvadd (bvadd ?v_4 (_ bv0 32)) (_ bv2 32)))) (let ((?v_5 (bvadd ?v_6 ((_ zero_extend 16) _substvar_196_)))) (let ((?v_8 (bvadd ?v_5 (_ bv6 32)))) (let ((?v_11 (bvadd ?v_8 (bvadd ?v_7 (_ bv1 32))))) (let ((?v_13 (bvadd ?v_11 (_ bv2 32))) (?v_9 ((_ zero_extend 24) _substvar_298_))) (let ((?v_12 (bvadd ?v_13 ?v_9))) (and true true true true (bvsle (_ bv1040 32) (bvsub ?v_12 (_ bv4269119 32))) true true true true true true true true true true true true true true (bvule (bvadd ?v_12 (_ bv2 32)) (_ bv4270134 32)) true))))))))))))
(check-sat)
(exit)
